; benchmark generated from python API
(set-info :status unknown)
(declare-fun x_epoch () Int)
(declare-fun x_shift_period_437904_epoch () Int)
(declare-fun x_year () Int)
(declare-fun x_month () Int)
(declare-fun x_day () Int)
(declare-fun x_shift_period_437904_year () Int)
(declare-fun x_shift_period_437904_month () Int)
(declare-fun x_shift_period_437904_day () Int)
(assert
 (>= x_epoch (- 36584)))
(assert
 (<= x_epoch 36829))
(assert
 (>= x_epoch 7303))
(assert
 (<= x_epoch 7305))
(assert
 (>= x_shift_period_437904_epoch (- 36584)))
(assert
 (<= x_shift_period_437904_epoch 36829))
(assert
 (let (($x608 (<= x_year 2100)))
 (let (($x150 (>= x_year 1900)))
 (let (($x632 (= x_month 11)))
 (let (($x221 (= x_month 9)))
 (let (($x292 (= x_month 6)))
 (let (($x735 (= x_month 4)))
 (let ((?x100 (ite (or $x735 $x292 $x221 $x632) 30 31)))
 (let (($x345 (= (mod x_year 4) 0)))
 (let (($x461 (= (mod x_year 100) 0)))
 (let (($x701 (= (mod x_year 400) 0)))
 (let (($x231 (ite $x701 true (ite $x461 false $x345))))
 (let (($x107 (= x_month 2)))
 (let ((?x242 (ite $x107 (ite $x231 29 28) ?x100)))
 (let (($x496 (>= x_day 1)))
 (let (($x321 (<= x_month 12)))
 (let (($x471 (>= x_month 1)))
 (and $x471 $x321 $x496 (<= x_day ?x242) $x150 $x608))))))))))))))))))
(assert
 (let (($x29 (or (and (= (mod 2000 4) 0) (and (distinct (mod 2000 100) 0) true)) (= (mod 2000 400) 0))))
 (let ((?x36 (ite (= 3 2) (ite $x29 31 31) (ite (= 3 1) (ite $x29 0 0) 0))))
 (let ((?x40 (ite $x29 60 59)))
 (let ((?x41 (ite (= 3 3) ?x40 ?x36)))
 (let ((?x46 (ite (= 3 4) (ite $x29 91 90) ?x41)))
 (let ((?x52 (ite (= 3 5) (ite $x29 121 120) ?x46)))
 (let ((?x58 (ite (= 3 6) (ite $x29 152 151) ?x52)))
 (let ((?x64 (ite (= 3 7) (ite $x29 182 181) ?x58)))
 (let ((?x70 (ite (= 3 8) (ite $x29 213 212) ?x64)))
 (let ((?x76 (ite (= 3 9) (ite $x29 244 243) ?x70)))
 (let ((?x82 (ite (= 3 10) (ite $x29 274 273) ?x76)))
 (let ((?x88 (ite (= 3 11) (ite $x29 305 304) ?x82)))
 (let ((?x16 (- (+ (* 365 (- 2000 1)) (div (- 2000 1) 4)) (div (- 2000 1) 100))))
 (let ((?x95 (+ (+ ?x16 (div (- 2000 1) 400)) (ite (= 3 12) (ite $x29 335 334) ?x88))))
 (let ((?x97 (+ ?x95 (- 1 1))))
 (let (($x345 (= (mod x_year 4) 0)))
 (let (($x461 (= (mod x_year 100) 0)))
 (let (($x701 (= (mod x_year 400) 0)))
 (let (($x231 (ite $x701 true (ite $x461 false $x345))))
 (let (($x142 (= 2 x_month)))
 (let ((?x395 (ite $x142 (ite $x231 31 31) (ite (= 1 x_month) (ite $x231 0 0) 0))))
 (let (($x270 (= 3 x_month)))
 (let (($x585 (= 4 x_month)))
 (let ((?x499 (ite $x585 (ite $x231 91 90) (ite $x270 (ite $x231 60 59) ?x395))))
 (let (($x510 (= 5 x_month)))
 (let (($x460 (= 6 x_month)))
 (let ((?x2018 (ite $x460 (ite $x231 152 151) (ite $x510 (ite $x231 121 120) ?x499))))
 (let (($x112 (= 7 x_month)))
 (let (($x601 (= 8 x_month)))
 (let ((?x606 (ite $x601 (ite $x231 213 212) (ite $x112 (ite $x231 182 181) ?x2018))))
 (let (($x659 (= 9 x_month)))
 (let (($x2109 (= 10 x_month)))
 (let ((?x3347 (ite $x2109 (ite $x231 274 273) (ite $x659 (ite $x231 244 243) ?x606))))
 (let (($x1089 (= 11 x_month)))
 (let (($x645 (= 12 x_month)))
 (let ((?x728 (ite $x645 (ite $x231 335 334) (ite $x1089 (ite $x231 305 304) ?x3347))))
 (let ((?x579 (- (+ (* 365 (- x_year 1)) (div (- x_year 1) 4)) (div (- x_year 1) 100))))
 (let ((?x2874 (+ (+ (+ ?x579 (div (- x_year 1) 400)) ?x728) (- x_day 1))))
 (= x_epoch (- ?x2874 ?x97)))))))))))))))))))))))))))))))))))))))))
(assert
 (let (($x3749 (<= x_shift_period_437904_year 2100)))
 (let (($x3741 (>= x_shift_period_437904_year 1900)))
 (let (($x1405 (= x_shift_period_437904_month 11)))
 (let (($x2216 (= x_shift_period_437904_month 9)))
 (let (($x1151 (= x_shift_period_437904_month 6)))
 (let (($x1148 (= x_shift_period_437904_month 4)))
 (let ((?x4406 (ite (or $x1148 $x1151 $x2216 $x1405) 30 31)))
 (let (($x3915 (= (mod x_shift_period_437904_year 4) 0)))
 (let (($x1854 (= (mod x_shift_period_437904_year 100) 0)))
 (let (($x3708 (= (mod x_shift_period_437904_year 400) 0)))
 (let (($x1761 (ite $x3708 true (ite $x1854 false $x3915))))
 (let (($x3755 (= x_shift_period_437904_month 2)))
 (let (($x3809 (>= x_shift_period_437904_day 1)))
 (let (($x2083 (<= x_shift_period_437904_month 12)))
 (let (($x3824 (>= x_shift_period_437904_month 1)))
 (and $x3824 $x2083 $x3809 (<= x_shift_period_437904_day (ite $x3755 (ite $x1761 29 28) ?x4406)) $x3741 $x3749)))))))))))))))))
(assert
 (let (($x29 (or (and (= (mod 2000 4) 0) (and (distinct (mod 2000 100) 0) true)) (= (mod 2000 400) 0))))
 (let ((?x36 (ite (= 3 2) (ite $x29 31 31) (ite (= 3 1) (ite $x29 0 0) 0))))
 (let ((?x40 (ite $x29 60 59)))
 (let ((?x41 (ite (= 3 3) ?x40 ?x36)))
 (let ((?x46 (ite (= 3 4) (ite $x29 91 90) ?x41)))
 (let ((?x52 (ite (= 3 5) (ite $x29 121 120) ?x46)))
 (let ((?x58 (ite (= 3 6) (ite $x29 152 151) ?x52)))
 (let ((?x64 (ite (= 3 7) (ite $x29 182 181) ?x58)))
 (let ((?x70 (ite (= 3 8) (ite $x29 213 212) ?x64)))
 (let ((?x76 (ite (= 3 9) (ite $x29 244 243) ?x70)))
 (let ((?x82 (ite (= 3 10) (ite $x29 274 273) ?x76)))
 (let ((?x88 (ite (= 3 11) (ite $x29 305 304) ?x82)))
 (let ((?x16 (- (+ (* 365 (- 2000 1)) (div (- 2000 1) 4)) (div (- 2000 1) 100))))
 (let ((?x95 (+ (+ ?x16 (div (- 2000 1) 400)) (ite (= 3 12) (ite $x29 335 334) ?x88))))
 (let ((?x97 (+ ?x95 (- 1 1))))
 (let (($x3915 (= (mod x_shift_period_437904_year 4) 0)))
 (let (($x1854 (= (mod x_shift_period_437904_year 100) 0)))
 (let (($x3708 (= (mod x_shift_period_437904_year 400) 0)))
 (let (($x1761 (ite $x3708 true (ite $x1854 false $x3915))))
 (let ((?x3971 (ite (= 1 x_shift_period_437904_month) (ite $x1761 0 0) 0)))
 (let ((?x4177 (ite (= 3 x_shift_period_437904_month) (ite $x1761 60 59) (ite (= 2 x_shift_period_437904_month) (ite $x1761 31 31) ?x3971))))
 (let ((?x3427 (ite (= 5 x_shift_period_437904_month) (ite $x1761 121 120) (ite (= 4 x_shift_period_437904_month) (ite $x1761 91 90) ?x4177))))
 (let ((?x4025 (ite (= 7 x_shift_period_437904_month) (ite $x1761 182 181) (ite (= 6 x_shift_period_437904_month) (ite $x1761 152 151) ?x3427))))
 (let ((?x4139 (ite (= 9 x_shift_period_437904_month) (ite $x1761 244 243) (ite (= 8 x_shift_period_437904_month) (ite $x1761 213 212) ?x4025))))
 (let ((?x2932 (ite (= 11 x_shift_period_437904_month) (ite $x1761 305 304) (ite (= 10 x_shift_period_437904_month) (ite $x1761 274 273) ?x4139))))
 (let ((?x2925 (+ (* 365 (- x_shift_period_437904_year 1)) (div (- x_shift_period_437904_year 1) 4))))
 (let ((?x2553 (+ (- ?x2925 (div (- x_shift_period_437904_year 1) 100)) (div (- x_shift_period_437904_year 1) 400))))
 (let ((?x143 (+ ?x2553 (ite (= 12 x_shift_period_437904_month) (ite $x1761 335 334) ?x2932))))
 (= x_shift_period_437904_epoch (- (+ ?x143 (- x_shift_period_437904_day 1)) ?x97)))))))))))))))))))))))))))))))
(assert
 (= x_shift_period_437904_epoch (+ x_epoch 1)))
(assert
 (= x_shift_period_437904_epoch 7305))
(check-sat)
